NAME: ACTUAL_TOURS/amz2429
TYPE: TOUR
COMMENT: RouteID_02d358e2-9955-4789-90c9-86fe3a675371
DIMENSION: 163
TOUR_SECTION
89
131
104
31
162
112
57
53
40
19
7
145
147
76
66
154
60
24
8
1
111
46
25
43
88
123
33
4
153
41
93
74
64
115
95
12
135
122
163
27
63
94
91
80
150
107
16
134
140
45
17
96
83
2
98
9
18
159
62
148
119
20
15
6
117
156
99
92
157
146
152
102
106
50
30
70
51
87
113
5
75
49
126
160
137
142
86
59
38
84
138
110
56
3
108
114
10
35
48
36
97
23
101
54
149
116
103
22
58
78
136
42
71
77
79
105
52
124
120
109
81
141
121
133
67
139
144
34
28
14
72
61
26
155
128
127
55
130
125
11
39
44
158
85
132
143
69
32
82
129
13
161
65
47
73
118
151
68
21
37
90
29
100
-1
EOF
